(set-info :smt-lib-version 2.6)
(set-logic QF_S)
(set-info :source |
Generated by: Hung-En Wang, Tzung-Lin Tsai, Chun-Han Lin, Fang Yu, and Jie-Hong R. Jiang
Generated on: 2019-02-28
Generator: Stranger
Application: Security analysis of string manipulating web applications
Target solver: CVC4, Norn, Z3-str2
Publication:
Hung-En Wang, Tzung-Lin Tsai, Chun-Han Lin, Fang Yu, Jie-Hong R. Jiang:
String Analysis via Automata Manipulation with Logic Circuit Representation. CAV (1) 2016: 241-260.
|)
(set-info :license "https://creativecommons.org/licenses/by/4.0/")
(set-info :category "industrial")
(set-info :status unknown)

(declare-fun sigmaStar_0 () String)
(declare-fun literal_7 () String)
(declare-fun x_9 () String)
(declare-fun epsilon () String)
(declare-fun literal_6 () String)
(declare-fun literal_5 () String)
(declare-fun x_13 () String)
(declare-fun literal_14 () String)
(declare-fun x_16 () String)
(declare-fun literal_19 () String)
(declare-fun x_22 () String)
(declare-fun literal_24 () String)
(declare-fun x_26 () String)
(declare-fun literal_27 () String)
(declare-fun x_28 () String)
(assert (= literal_7 "\u{69}\u{64}\u{3d}\u{26}\u{61}\u{6d}\u{70}\u{3b}\u{73}\u{69}\u{64}\u{3d}\u{26}\u{61}\u{6d}\u{70}\u{3b}\u{67}\u{72}\u{6f}\u{75}\u{70}\u{3d}"))
(assert (= epsilon ""))
(assert (= literal_6 "\u{30}"))
(assert (= literal_5 "\u{30}"))
(assert (or (= x_9 epsilon) (= x_9 literal_6) (= x_9 literal_5)))
(assert (= x_13 (str.++ literal_7 x_9)))
(assert (= literal_14 "\u{26}\u{61}\u{6d}\u{70}\u{3b}\u{74}\u{79}\u{70}\u{65}\u{3d}\u{73}\u{74}\u{75}\u{64}\u{65}\u{6e}\u{74}\u{2e}\u{70}\u{6e}\u{67}"))
(assert (= x_16 (str.++ x_13 literal_14)))
(assert (= literal_19 "\u{20}\u{73}\u{72}\u{63}\u{3d}\u{5c}\u{22}\u{2f}\u{6d}\u{6f}\u{64}\u{2f}\u{73}\u{75}\u{72}\u{76}\u{65}\u{79}\u{2f}\u{67}\u{72}\u{61}\u{70}\u{68}\u{2e}\u{70}\u{68}\u{70}\u{3f}"))
(assert (= x_22 (str.++ literal_19 x_16)))
(assert (= literal_24 "\u{5c}\u{22}\u{20}\u{61}\u{6c}\u{74}\u{3d}\u{5c}\u{22}\u{5c}\u{22}\u{20}\u{2f}\u{3e}"))
(assert (= x_26 (str.++ x_22 literal_24)))
(assert (= literal_27 "\u{3c}\u{69}\u{6d}\u{67}\u{20}\u{68}\u{65}\u{69}\u{67}\u{68}\u{74}\u{3d}\u{5c}\u{22}\u{35}\u{30}\u{30}\u{5c}\u{22}\u{20}\u{77}\u{69}\u{64}\u{74}\u{68}\u{3d}\u{5c}\u{22}\u{39}\u{30}\u{30}\u{5c}\u{22}\u{20}\u{62}\u{6f}\u{72}\u{64}\u{65}\u{72}\u{3d}\u{5c}\u{22}\u{31}\u{5c}\u{22}"))
(assert (= x_28 (str.++ literal_27 x_26)))
(assert (str.in_re x_28 (re.++ (re.* re.allchar) (re.++ (str.to_re "\u{5c}\u{3c}\u{53}\u{43}\u{52}\u{49}\u{50}\u{54}") (re.* re.allchar)))))
(check-sat)
(exit)
